Minimize
	value: tt

Subject to
tt + 2000 s_1_1 > 0
tt - t_1_1 - 2003.000000 s_1_1 + 3.000000 s_1_6 > -1998.735411
tt + 2000 s_2_1 > 0
tt - t_2_1 - 2003.000000 s_2_1 + 3.000000 s_2_6 > -1992.105647
tt + 2000 s_1_2 > 0
tt - t_1_2 - 2003.000000 s_1_2 + 3.000000 s_1_7 > -1998.443600
tt + 2000 s_2_2 > 0
tt - t_2_2 - 2003.000000 s_2_2 + 3.000000 s_2_7 > -1991.381716
tt + 2000 s_1_3 > 0
tt - t_1_3 - 2003.000000 s_1_3 + 3.000000 s_1_7 > -1998.352944
tt + 2000 s_2_3 > 0
tt - t_2_3 - 2003.000000 s_2_3 + 3.000000 s_2_7 > -1987.212582
tt + 2000 s_1_4 > 0
tt - t_1_4 - 2012.000000 s_1_4 + 12.000000 s_1_3 > -1999.081500
tt + 2000 s_2_4 > 0
tt - t_2_4 - 2012.000000 s_2_4 + 12.000000 s_2_3 > -1992.750181
tt + 2000 s_1_5 > 0
tt - t_1_5 - 2012.000000 s_1_5 + 12.000000 s_1_6 > -1999.154778
tt + 2000 s_2_5 > 0
tt - t_2_5 - 2012.000000 s_2_5 + 12.000000 s_2_6 > -1993.771886
tt + 2000 s_1_6 > 0
tt - t_1_6 - 2000.000000 s_1_6 > -1995.362206
tt + 2000 s_2_6 > 0
tt - t_2_6 - 2000.000000 s_2_6 > -1981.304279
tt + 2000 s_1_7 > 0
tt - t_1_7 - 2000.000000 s_1_7 > -1998.162656
tt + 2000 s_2_7 > 0
tt - t_2_7 - 2000.000000 s_2_7 > -1993.675957
tt + 2000 s_1_8 > 0
tt - t_1_8 - 2075.000000 s_1_8 + 75.000000 s_1_3 > -1999.687700
tt + 2000 s_2_8 > 0
tt - t_2_8 - 2075.000000 s_2_8 + 75.000000 s_2_3 > -1995.684500
s_1_1 + s_2_1  = 1
s_1_2 + s_2_2  = 1
s_1_3 + s_2_3  = 1
s_1_4 + s_2_4  = 1
s_1_5 + s_2_5  = 1
s_1_6 + s_2_6  = 1
s_1_7 + s_2_7  = 1
s_1_8 + s_2_8  = 1
t_1_1 - t_1_2 + 2000.000000 u_1_1_2 - 3.000000 s_1_2 + 3.000000 s_1_7 > 1.556400
t_1_2 - t_1_1 - 2000.000000 u_1_1_2 > -1998.735411
t_2_1 - t_2_2 + 2000.000000 u_2_1_2 - 3.000000 s_2_2 + 3.000000 s_2_7 > 8.618284
t_2_2 - t_2_1 - 2000.000000 u_2_1_2 > -1992.105647
t_1_1 - t_1_3 + 2000.000000 u_1_1_3 - 3.000000 s_1_3 + 3.000000 s_1_7 > 1.647056
t_1_3 - t_1_1 - 2000.000000 u_1_1_3 > -1998.735411
t_2_1 - t_2_3 + 2000.000000 u_2_1_3 - 3.000000 s_2_3 + 3.000000 s_2_7 > 12.787418
t_2_3 - t_2_1 - 2000.000000 u_2_1_3 > -1992.105647
t_1_1 - t_1_4 + 2000.000000 u_1_1_4 - 6.000000 s_1_4 + 6.000000 s_1_3 > 0.918500
t_1_4 - t_1_1 - 2000.000000 u_1_1_4 > -1998.735411
t_2_1 - t_2_4 + 2000.000000 u_2_1_4 - 6.000000 s_2_4 + 6.000000 s_2_3 > 7.249819
t_2_4 - t_2_1 - 2000.000000 u_2_1_4 > -1992.105647
t_1_1 - t_1_5 + 2000.000000 u_1_1_5 - 6.000000 s_1_5 + 6.000000 s_1_6 > 0.845222
t_1_5 - t_1_1 - 2000.000000 u_1_1_5 > -1998.735411
t_2_1 - t_2_5 + 2000.000000 u_2_1_5 - 6.000000 s_2_5 + 6.000000 s_2_6 > 6.228114
t_2_5 - t_2_1 - 2000.000000 u_2_1_5 > -1992.105647
t_1_1 - t_1_6 - 2000.000000 s_1_6 > -1992.362206
t_1_1 - t_2_6 - 2000.000000 s_2_6 > -1978.304279
t_2_1 - t_1_6 - 2000.000000 s_1_6 > -1992.362206
t_2_1 - t_2_6 - 2000.000000 s_2_6 > -1978.304279
t_1_1 - t_1_7 + 2000.000000 u_1_1_7 > 1.837344
t_1_7 - t_1_1 - 2000.000000 u_1_1_7 > -1998.735411
t_2_1 - t_2_7 + 2000.000000 u_2_1_7 > 6.324043
t_2_7 - t_2_1 - 2000.000000 u_2_1_7 > -1992.105647
t_1_8 - t_1_1 - 2000.000000 s_1_1 > -1995.735411
t_1_8 - t_2_1 - 2000.000000 s_2_1 > -1989.105647
t_2_8 - t_1_1 - 2000.000000 s_1_1 > -1995.735411
t_2_8 - t_2_1 - 2000.000000 s_2_1 > -1989.105647
t_1_2 - t_1_1 + 2000.000000 u_1_2_1 - 3.000000 s_1_1 + 3.000000 s_1_6 > 1.264589
t_1_1 - t_1_2 - 2000.000000 u_1_2_1 > -1998.443600
t_2_2 - t_2_1 + 2000.000000 u_2_2_1 - 3.000000 s_2_1 + 3.000000 s_2_6 > 7.894353
t_2_1 - t_2_2 - 2000.000000 u_2_2_1 > -1991.381716
t_1_2 - t_1_3 + 2000.000000 u_1_2_3 - 3.000000 s_1_3 + 3.000000 s_1_7 > 1.647056
t_1_3 - t_1_2 - 2000.000000 u_1_2_3 > -1998.443600
t_2_2 - t_2_3 + 2000.000000 u_2_2_3 - 3.000000 s_2_3 + 3.000000 s_2_7 > 12.787418
t_2_3 - t_2_2 - 2000.000000 u_2_2_3 > -1991.381716
t_1_2 - t_1_4 + 2000.000000 u_1_2_4 - 6.000000 s_1_4 + 6.000000 s_1_3 > 0.918500
t_1_4 - t_1_2 - 2000.000000 u_1_2_4 > -1998.443600
t_2_2 - t_2_4 + 2000.000000 u_2_2_4 - 6.000000 s_2_4 + 6.000000 s_2_3 > 7.249819
t_2_4 - t_2_2 - 2000.000000 u_2_2_4 > -1991.381716
t_1_2 - t_1_5 + 2000.000000 u_1_2_5 - 6.000000 s_1_5 + 6.000000 s_1_6 > 0.845222
t_1_5 - t_1_2 - 2000.000000 u_1_2_5 > -1998.443600
t_2_2 - t_2_5 + 2000.000000 u_2_2_5 - 6.000000 s_2_5 + 6.000000 s_2_6 > 6.228114
t_2_5 - t_2_2 - 2000.000000 u_2_2_5 > -1991.381716
t_1_2 - t_1_6 + 2000.000000 u_1_2_6 > 4.637794
t_1_6 - t_1_2 - 2000.000000 u_1_2_6 > -1998.443600
t_2_2 - t_2_6 + 2000.000000 u_2_2_6 > 18.695721
t_2_6 - t_2_2 - 2000.000000 u_2_2_6 > -1991.381716
t_1_2 - t_1_7 - 2000.000000 s_1_7 > -1995.162656
t_1_2 - t_2_7 - 2000.000000 s_2_7 > -1990.675957
t_2_2 - t_1_7 - 2000.000000 s_1_7 > -1995.162656
t_2_2 - t_2_7 - 2000.000000 s_2_7 > -1990.675957
t_1_8 - t_1_2 - 2000.000000 s_1_2 > -1995.443600
t_1_8 - t_2_2 - 2000.000000 s_2_2 > -1988.381716
t_2_8 - t_1_2 - 2000.000000 s_1_2 > -1995.443600
t_2_8 - t_2_2 - 2000.000000 s_2_2 > -1988.381716
t_1_3 - t_1_1 + 2000.000000 u_1_3_1 - 3.000000 s_1_1 + 3.000000 s_1_6 > 1.264589
t_1_1 - t_1_3 - 2000.000000 u_1_3_1 > -1998.352944
t_2_3 - t_2_1 + 2000.000000 u_2_3_1 - 3.000000 s_2_1 + 3.000000 s_2_6 > 7.894353
t_2_1 - t_2_3 - 2000.000000 u_2_3_1 > -1987.212582
t_1_3 - t_1_2 + 2000.000000 u_1_3_2 - 3.000000 s_1_2 + 3.000000 s_1_7 > 1.556400
t_1_2 - t_1_3 - 2000.000000 u_1_3_2 > -1998.352944
t_2_3 - t_2_2 + 2000.000000 u_2_3_2 - 3.000000 s_2_2 + 3.000000 s_2_7 > 8.618284
t_2_2 - t_2_3 - 2000.000000 u_2_3_2 > -1987.212582
t_1_4 - t_1_3 - 2000.000000 s_1_3 > -1995.352944
t_1_4 - t_2_3 - 2000.000000 s_2_3 > -1984.212582
t_2_4 - t_1_3 - 2000.000000 s_1_3 > -1995.352944
t_2_4 - t_2_3 - 2000.000000 s_2_3 > -1984.212582
t_1_3 - t_1_5 + 2000.000000 u_1_3_5 - 6.000000 s_1_5 + 6.000000 s_1_6 > 0.845222
t_1_5 - t_1_3 - 2000.000000 u_1_3_5 > -1998.352944
t_2_3 - t_2_5 + 2000.000000 u_2_3_5 - 6.000000 s_2_5 + 6.000000 s_2_6 > 6.228114
t_2_5 - t_2_3 - 2000.000000 u_2_3_5 > -1987.212582
t_1_3 - t_1_6 + 2000.000000 u_1_3_6 > 4.637794
t_1_6 - t_1_3 - 2000.000000 u_1_3_6 > -1998.352944
t_2_3 - t_2_6 + 2000.000000 u_2_3_6 > 18.695721
t_2_6 - t_2_3 - 2000.000000 u_2_3_6 > -1987.212582
t_1_3 - t_1_7 - 2000.000000 s_1_7 > -1995.162656
t_1_3 - t_2_7 - 2000.000000 s_2_7 > -1990.675957
t_2_3 - t_1_7 - 2000.000000 s_1_7 > -1995.162656
t_2_3 - t_2_7 - 2000.000000 s_2_7 > -1990.675957
t_1_8 - t_1_3 - 2000.000000 s_1_3 > -1995.352944
t_1_8 - t_2_3 - 2000.000000 s_2_3 > -1984.212582
t_2_8 - t_1_3 - 2000.000000 s_1_3 > -1995.352944
t_2_8 - t_2_3 - 2000.000000 s_2_3 > -1984.212582
t_1_4 - t_1_1 + 2000.000000 u_1_4_1 - 3.000000 s_1_1 + 3.000000 s_1_6 > 1.264589
t_1_1 - t_1_4 - 2000.000000 u_1_4_1 > -1999.081500
t_2_4 - t_2_1 + 2000.000000 u_2_4_1 - 3.000000 s_2_1 + 3.000000 s_2_6 > 7.894353
t_2_1 - t_2_4 - 2000.000000 u_2_4_1 > -1992.750181
t_1_4 - t_1_2 + 2000.000000 u_1_4_2 - 3.000000 s_1_2 + 3.000000 s_1_7 > 1.556400
t_1_2 - t_1_4 - 2000.000000 u_1_4_2 > -1999.081500
t_2_4 - t_2_2 + 2000.000000 u_2_4_2 - 3.000000 s_2_2 + 3.000000 s_2_7 > 8.618284
t_2_2 - t_2_4 - 2000.000000 u_2_4_2 > -1992.750181
t_1_4 - t_1_3 - 2000.000000 s_1_3 > -1995.352944
t_1_4 - t_2_3 - 2000.000000 s_2_3 > -1984.212582
t_2_4 - t_1_3 - 2000.000000 s_1_3 > -1995.352944
t_2_4 - t_2_3 - 2000.000000 s_2_3 > -1984.212582
t_1_4 - t_1_5 + 2000.000000 u_1_4_5 - 6.000000 s_1_5 + 6.000000 s_1_6 > 0.845222
t_1_5 - t_1_4 - 2000.000000 u_1_4_5 > -1999.081500
t_2_4 - t_2_5 + 2000.000000 u_2_4_5 - 6.000000 s_2_5 + 6.000000 s_2_6 > 6.228114
t_2_5 - t_2_4 - 2000.000000 u_2_4_5 > -1992.750181
t_1_4 - t_1_6 + 2000.000000 u_1_4_6 > 4.637794
t_1_6 - t_1_4 - 2000.000000 u_1_4_6 > -1999.081500
t_2_4 - t_2_6 + 2000.000000 u_2_4_6 > 18.695721
t_2_6 - t_2_4 - 2000.000000 u_2_4_6 > -1992.750181
t_1_4 - t_1_7 - 2000.000000 s_1_7 > -1995.162656
t_1_4 - t_2_7 - 2000.000000 s_2_7 > -1990.675957
t_2_4 - t_1_7 - 2000.000000 s_1_7 > -1995.162656
t_2_4 - t_2_7 - 2000.000000 s_2_7 > -1990.675957
t_1_8 - t_1_4 - 2000.000000 s_1_4 > -1993.081500
t_1_8 - t_2_4 - 2000.000000 s_2_4 > -1986.750181
t_2_8 - t_1_4 - 2000.000000 s_1_4 > -1993.081500
t_2_8 - t_2_4 - 2000.000000 s_2_4 > -1986.750181
t_1_5 - t_1_1 + 2000.000000 u_1_5_1 - 3.000000 s_1_1 + 3.000000 s_1_6 > 1.264589
t_1_1 - t_1_5 - 2000.000000 u_1_5_1 > -1999.154778
t_2_5 - t_2_1 + 2000.000000 u_2_5_1 - 3.000000 s_2_1 + 3.000000 s_2_6 > 7.894353
t_2_1 - t_2_5 - 2000.000000 u_2_5_1 > -1993.771886
t_1_5 - t_1_2 + 2000.000000 u_1_5_2 - 3.000000 s_1_2 + 3.000000 s_1_7 > 1.556400
t_1_2 - t_1_5 - 2000.000000 u_1_5_2 > -1999.154778
t_2_5 - t_2_2 + 2000.000000 u_2_5_2 - 3.000000 s_2_2 + 3.000000 s_2_7 > 8.618284
t_2_2 - t_2_5 - 2000.000000 u_2_5_2 > -1993.771886
t_1_5 - t_1_3 + 2000.000000 u_1_5_3 - 3.000000 s_1_3 + 3.000000 s_1_7 > 1.647056
t_1_3 - t_1_5 - 2000.000000 u_1_5_3 > -1999.154778
t_2_5 - t_2_3 + 2000.000000 u_2_5_3 - 3.000000 s_2_3 + 3.000000 s_2_7 > 12.787418
t_2_3 - t_2_5 - 2000.000000 u_2_5_3 > -1993.771886
t_1_5 - t_1_4 + 2000.000000 u_1_5_4 - 6.000000 s_1_4 + 6.000000 s_1_3 > 0.918500
t_1_4 - t_1_5 - 2000.000000 u_1_5_4 > -1999.154778
t_2_5 - t_2_4 + 2000.000000 u_2_5_4 - 6.000000 s_2_4 + 6.000000 s_2_3 > 7.249819
t_2_4 - t_2_5 - 2000.000000 u_2_5_4 > -1993.771886
t_1_5 - t_1_6 - 2000.000000 s_1_6 > -1992.362206
t_1_5 - t_2_6 - 2000.000000 s_2_6 > -1978.304279
t_2_5 - t_1_6 - 2000.000000 s_1_6 > -1992.362206
t_2_5 - t_2_6 - 2000.000000 s_2_6 > -1978.304279
t_1_5 - t_1_7 - 2000.000000 s_1_7 > -1995.162656
t_1_5 - t_2_7 - 2000.000000 s_2_7 > -1990.675957
t_2_5 - t_1_7 - 2000.000000 s_1_7 > -1995.162656
t_2_5 - t_2_7 - 2000.000000 s_2_7 > -1990.675957
t_1_8 - t_1_5 - 2000.000000 s_1_5 > -1993.154778
t_1_8 - t_2_5 - 2000.000000 s_2_5 > -1987.771886
t_2_8 - t_1_5 - 2000.000000 s_1_5 > -1993.154778
t_2_8 - t_2_5 - 2000.000000 s_2_5 > -1987.771886
t_1_1 - t_1_6 - 2000.000000 s_1_6 > -1992.362206
t_1_1 - t_2_6 - 2000.000000 s_2_6 > -1978.304279
t_2_1 - t_1_6 - 2000.000000 s_1_6 > -1992.362206
t_2_1 - t_2_6 - 2000.000000 s_2_6 > -1978.304279
t_1_6 - t_1_2 + 2000.000000 u_1_6_2 - 3.000000 s_1_2 + 3.000000 s_1_7 > 1.556400
t_1_2 - t_1_6 - 2000.000000 u_1_6_2 > -1995.362206
t_2_6 - t_2_2 + 2000.000000 u_2_6_2 - 3.000000 s_2_2 + 3.000000 s_2_7 > 8.618284
t_2_2 - t_2_6 - 2000.000000 u_2_6_2 > -1981.304279
t_1_6 - t_1_3 + 2000.000000 u_1_6_3 - 3.000000 s_1_3 + 3.000000 s_1_7 > 1.647056
t_1_3 - t_1_6 - 2000.000000 u_1_6_3 > -1995.362206
t_2_6 - t_2_3 + 2000.000000 u_2_6_3 - 3.000000 s_2_3 + 3.000000 s_2_7 > 12.787418
t_2_3 - t_2_6 - 2000.000000 u_2_6_3 > -1981.304279
t_1_6 - t_1_4 + 2000.000000 u_1_6_4 - 6.000000 s_1_4 + 6.000000 s_1_3 > 0.918500
t_1_4 - t_1_6 - 2000.000000 u_1_6_4 > -1995.362206
t_2_6 - t_2_4 + 2000.000000 u_2_6_4 - 6.000000 s_2_4 + 6.000000 s_2_3 > 7.249819
t_2_4 - t_2_6 - 2000.000000 u_2_6_4 > -1981.304279
t_1_5 - t_1_6 - 2000.000000 s_1_6 > -1992.362206
t_1_5 - t_2_6 - 2000.000000 s_2_6 > -1978.304279
t_2_5 - t_1_6 - 2000.000000 s_1_6 > -1992.362206
t_2_5 - t_2_6 - 2000.000000 s_2_6 > -1978.304279
t_1_6 - t_1_7 + 2000.000000 u_1_6_7 > 1.837344
t_1_7 - t_1_6 - 2000.000000 u_1_6_7 > -1995.362206
t_2_6 - t_2_7 + 2000.000000 u_2_6_7 > 6.324043
t_2_7 - t_2_6 - 2000.000000 u_2_6_7 > -1981.304279
t_1_7 - t_1_1 + 2000.000000 u_1_7_1 - 3.000000 s_1_1 + 3.000000 s_1_6 > 1.264589
t_1_1 - t_1_7 - 2000.000000 u_1_7_1 > -1998.162656
t_2_7 - t_2_1 + 2000.000000 u_2_7_1 - 3.000000 s_2_1 + 3.000000 s_2_6 > 7.894353
t_2_1 - t_2_7 - 2000.000000 u_2_7_1 > -1993.675957
t_1_2 - t_1_7 - 2000.000000 s_1_7 > -1995.162656
t_1_2 - t_2_7 - 2000.000000 s_2_7 > -1990.675957
t_2_2 - t_1_7 - 2000.000000 s_1_7 > -1995.162656
t_2_2 - t_2_7 - 2000.000000 s_2_7 > -1990.675957
t_1_3 - t_1_7 - 2000.000000 s_1_7 > -1995.162656
t_1_3 - t_2_7 - 2000.000000 s_2_7 > -1990.675957
t_2_3 - t_1_7 - 2000.000000 s_1_7 > -1995.162656
t_2_3 - t_2_7 - 2000.000000 s_2_7 > -1990.675957
t_1_4 - t_1_7 - 2000.000000 s_1_7 > -1995.162656
t_1_4 - t_2_7 - 2000.000000 s_2_7 > -1990.675957
t_2_4 - t_1_7 - 2000.000000 s_1_7 > -1995.162656
t_2_4 - t_2_7 - 2000.000000 s_2_7 > -1990.675957
t_1_5 - t_1_7 - 2000.000000 s_1_7 > -1995.162656
t_1_5 - t_2_7 - 2000.000000 s_2_7 > -1990.675957
t_2_5 - t_1_7 - 2000.000000 s_1_7 > -1995.162656
t_2_5 - t_2_7 - 2000.000000 s_2_7 > -1990.675957
t_1_7 - t_1_6 + 2000.000000 u_1_7_6 > 4.637794
t_1_6 - t_1_7 - 2000.000000 u_1_7_6 > -1998.162656
t_2_7 - t_2_6 + 2000.000000 u_2_7_6 > 18.695721
t_2_6 - t_2_7 - 2000.000000 u_2_7_6 > -1993.675957
t_1_8 - t_1_1 - 2000.000000 s_1_1 > -1995.735411
t_1_8 - t_2_1 - 2000.000000 s_2_1 > -1989.105647
t_2_8 - t_1_1 - 2000.000000 s_1_1 > -1995.735411
t_2_8 - t_2_1 - 2000.000000 s_2_1 > -1989.105647
t_1_8 - t_1_2 - 2000.000000 s_1_2 > -1995.443600
t_1_8 - t_2_2 - 2000.000000 s_2_2 > -1988.381716
t_2_8 - t_1_2 - 2000.000000 s_1_2 > -1995.443600
t_2_8 - t_2_2 - 2000.000000 s_2_2 > -1988.381716
t_1_8 - t_1_3 - 2000.000000 s_1_3 > -1995.352944
t_1_8 - t_2_3 - 2000.000000 s_2_3 > -1984.212582
t_2_8 - t_1_3 - 2000.000000 s_1_3 > -1995.352944
t_2_8 - t_2_3 - 2000.000000 s_2_3 > -1984.212582
t_1_8 - t_1_4 - 2000.000000 s_1_4 > -1993.081500
t_1_8 - t_2_4 - 2000.000000 s_2_4 > -1986.750181
t_2_8 - t_1_4 - 2000.000000 s_1_4 > -1993.081500
t_2_8 - t_2_4 - 2000.000000 s_2_4 > -1986.750181
t_1_8 - t_1_5 - 2000.000000 s_1_5 > -1993.154778
t_1_8 - t_2_5 - 2000.000000 s_2_5 > -1987.771886
t_2_8 - t_1_5 - 2000.000000 s_1_5 > -1993.154778
t_2_8 - t_2_5 - 2000.000000 s_2_5 > -1987.771886
Binary
s_1_1
s_2_1
s_1_2
s_2_2
s_1_3
s_2_3
s_1_4
s_2_4
s_1_5
s_2_5
s_1_6
s_2_6
s_1_7
s_2_7
s_1_8
s_2_8
u_1_1_2
u_2_1_2
u_1_1_3
u_2_1_3
u_1_1_4
u_2_1_4
u_1_1_5
u_2_1_5
u_1_1_7
u_2_1_7
u_1_2_1
u_2_2_1
u_1_2_3
u_2_2_3
u_1_2_4
u_2_2_4
u_1_2_5
u_2_2_5
u_1_2_6
u_2_2_6
u_1_3_1
u_2_3_1
u_1_3_2
u_2_3_2
u_1_3_5
u_2_3_5
u_1_3_6
u_2_3_6
u_1_4_1
u_2_4_1
u_1_4_2
u_2_4_2
u_1_4_5
u_2_4_5
u_1_4_6
u_2_4_6
u_1_5_1
u_2_5_1
u_1_5_2
u_2_5_2
u_1_5_3
u_2_5_3
u_1_5_4
u_2_5_4
u_1_6_2
u_2_6_2
u_1_6_3
u_2_6_3
u_1_6_4
u_2_6_4
u_1_6_7
u_2_6_7
u_1_7_1
u_2_7_1
u_1_7_6
u_2_7_6

End
